kp_lp_files/eil51_n50_uncorr-similar-weights_01-kp.lp
MAXIMIZE
1 z0 + 896 z1 + 367 z2 + 690 z3 + 613 z4 + 874 z5 + 122 z6 + 486 z7 + 823 z8 + 463 z9 + 589 z10 + 325 z11 + 1000 z12 + 776 z13 + 123 z14 + 356 z15 + 305 z16 + 47 z17 + 645 z18 + 139 z19 + 247 z20 + 211 z21 + 100 z22 + 627 z23 + 760 z24 + 776 z25 + 475 z26 + 937 z27 + 101 z28 + 281 z29 + 751 z30 + 530 z31 + 240 z32 + 248 z33 + 768 z34 + 31 z35 + 613 z36 + 881 z37 + 367 z38 + 712 z39 + 410 z40 + 157 z41 + 824 z42 + 242 z43 + 472 z44 + 722 z45 + 775 z46 + 371 z47 + 337 z48 + 885 z49
SUBJECT TO
1008 z0 + 1006 z1 + 1006 z2 + 1001 z3 + 1006 z4 + 1001 z5 + 1009 z6 + 1004 z7 + 1001 z8 + 1003 z9 + 1004 z10 + 1009 z11 + 1006 z12 + 1005 z13 + 1000 z14 + 1000 z15 + 1007 z16 + 1006 z17 + 1008 z18 + 1000 z19 + 1009 z20 + 1009 z21 + 1007 z22 + 1004 z23 + 1002 z24 + 1006 z25 + 1006 z26 + 1007 z27 + 1008 z28 + 1008 z29 + 1008 z30 + 1006 z31 + 1004 z32 + 1005 z33 + 1000 z34 + 1003 z35 + 1007 z36 + 1004 z37 + 1007 z38 + 1000 z39 + 1007 z40 + 1009 z41 + 1000 z42 + 1000 z43 + 1005 z44 + 1006 z45 + 1001 z46 + 1006 z47 + 1003 z48 + 1008 z49 <= 4567
BINARIES
z0
z1
z2
z3
z4
z5
z6
z7
z8
z9
z10
z11
z12
z13
z14
z15
z16
z17
z18
z19
z20
z21
z22
z23
z24
z25
z26
z27
z28
z29
z30
z31
z32
z33
z34
z35
z36
z37
z38
z39
z40
z41
z42
z43
z44
z45
z46
z47
z48
z49
END