kp_sol_files/eil51_n50_uncorr-similar-weights_01-kp.sol
# Objective value = 3718
z0 0
z1 1
z2 0
z3 0
z4 0
z5 0
z6 0
z7 0
z8 0
z9 0
z10 0
z11 0
z12 1
z13 0
z14 0
z15 0
z16 0
z17 0
z18 0
z19 0
z20 0
z21 0
z22 0
z23 0
z24 0
z25 0
z26 0
z27 1
z28 0
z29 0
z30 0
z31 0
z32 0
z33 0
z34 0
z35 0
z36 0
z37 0
z38 0
z39 0
z40 0
z41 0
z42 0
z43 0
z44 0
z45 0
z46 0
z47 0
z48 0
z49 1
